runtime_files/msmp.tsp
NAME : mcpfd
COMMENT : file for mcpfd test
TYPE : ATSP
DIMENSION : 20
EDGE_WEIGHT_TYPE : EXPLICIT
EDGE_WEIGHT_FORMAT : FULL_MATRIX
EDGE_WEIGHT_SECTION
999999 999999 999999 999999 999999 11 17 26 29 17 11 12 34 11 8 24 22 20 14 21 
999999 999999 999999 999999 999999 24 14 23 50 24 30 25 55 10 29 41 27 29 7 36 
999999 999999 999999 999999 999999 22 12 21 48 22 28 23 53 8 27 39 25 27 5 36 
999999 999999 999999 999999 999999 15 35 42 23 33 19 28 28 25 10 6 38 36 28 3 
999999 999999 999999 999999 999999 22 34 39 18 30 16 25 23 28 9 9 35 33 31 12 
999999 999999 999999 999999 999999 0 28 37 34 28 22 23 39 14 13 21 33 31 17 16 
999999 999999 999999 999999 999999 28 0 11 42 16 24 17 47 14 25 41 17 21 13 38 
999999 999999 999999 999999 999999 37 11 0 35 11 23 14 40 23 32 48 6 10 22 45 
999999 999999 999999 999999 999999 34 42 35 0 26 20 27 5 40 21 27 29 25 43 26 
999999 999999 999999 999999 999999 28 16 11 26 0 14 5 31 18 23 39 5 5 17 36 
999999 999999 999999 999999 999999 22 24 23 20 14 0 9 25 20 9 25 19 17 23 22 
999999 999999 999999 999999 999999 23 17 14 27 5 9 0 32 15 18 34 10 8 18 31 
999999 999999 999999 999999 999999 39 47 40 5 31 25 32 0 45 26 32 34 30 48 31 
999999 999999 999999 999999 999999 14 14 23 40 18 20 15 45 0 19 31 21 21 3 28 
999999 999999 999999 999999 999999 13 25 32 21 23 9 18 26 19 0 16 28 26 22 13 
0 0 0 0 0 999999 999999 999999 999999 999999 999999 999999 999999 999999 999999 999999 999999 999999 999999 999999 
0 0 0 0 0 999999 999999 999999 999999 999999 999999 999999 999999 999999 999999 999999 999999 999999 999999 999999 
0 0 0 0 0 999999 999999 999999 999999 999999 999999 999999 999999 999999 999999 999999 999999 999999 999999 999999 
0 0 0 0 0 999999 999999 999999 999999 999999 999999 999999 999999 999999 999999 999999 999999 999999 999999 999999 
0 0 0 0 0 999999 999999 999999 999999 999999 999999 999999 999999 999999 999999 999999 999999 999999 999999 999999 
